jobs  (incl. supersource/sink ):	102
RESOURCES
- renewable                 : 2 R
- nonrenewable              : 2 N
- doubly constrained        : 0 D
************************************************************************
PRECEDENCE RELATIONS:
jobnr.    #modes  #successors   successors
1	1	17		2 3 4 5 6 7 8 9 10 11 12 13 14 15 16 20 21 
2	6	13		46 43 39 37 36 34 33 30 26 24 22 19 17 
3	6	11		46 44 38 37 32 30 29 28 27 26 24 
4	6	12		51 47 46 43 39 38 32 31 30 26 24 22 
5	6	10		47 44 38 36 30 29 27 26 24 23 
6	6	10		47 46 44 39 38 37 34 26 24 22 
7	6	7		44 43 40 39 37 18 17 
8	6	9		57 45 44 43 42 36 25 24 17 
9	6	12		59 53 51 48 47 46 44 39 37 35 32 30 
10	6	5		45 42 31 25 17 
11	6	12		61 56 54 53 52 50 47 43 40 39 33 30 
12	6	13		60 59 56 55 53 52 49 48 44 41 39 36 32 
13	6	7		57 53 52 43 33 25 24 
14	6	7		55 53 47 44 43 39 24 
15	6	7		55 53 51 47 45 29 24 
16	6	14		70 61 59 57 55 54 52 51 49 47 46 43 41 40 
17	6	8		59 51 48 47 41 38 35 32 
18	6	7		57 56 54 51 50 45 30 
19	6	13		101 75 62 61 60 56 55 54 51 50 44 42 40 
20	6	5		61 59 53 41 25 
21	6	10		62 61 59 56 55 49 45 44 42 41 
22	6	13		78 67 62 61 60 59 57 55 54 53 52 49 45 
23	6	11		80 67 65 60 59 58 56 54 53 49 39 
24	6	5		70 59 54 41 35 
25	6	14		78 75 72 70 69 66 63 62 60 58 55 54 50 49 
26	6	8		75 67 62 55 52 48 45 40 
27	6	11		80 69 66 65 61 60 59 58 51 49 45 
28	6	9		100 80 72 61 54 52 50 47 43 
29	6	11		101 100 78 70 69 64 61 56 54 50 41 
30	6	10		84 78 70 69 67 62 60 55 49 41 
31	6	17		101 80 77 76 75 70 69 68 67 66 65 64 63 62 58 56 54 
32	6	14		101 100 80 78 77 75 71 69 68 66 63 62 54 50 
33	6	13		87 86 84 80 78 70 69 66 65 63 59 58 51 
34	6	8		100 85 72 69 56 51 49 48 
35	6	11		100 99 80 78 69 67 61 60 58 56 49 
36	6	11		100 99 86 85 78 75 71 69 65 61 51 
37	6	14		101 87 86 84 83 82 78 76 74 69 68 66 58 55 
38	6	11		87 86 84 80 77 75 71 67 63 60 53 
39	6	7		101 84 77 75 74 69 45 
40	6	14		100 99 86 84 83 82 77 76 72 69 66 65 64 58 
41	6	11		86 83 82 77 76 74 68 66 65 63 58 
42	6	11		98 97 87 84 78 73 70 68 67 66 63 
43	6	12		97 82 79 77 76 75 73 69 68 67 64 60 
44	6	13		98 97 87 86 85 84 79 77 76 69 68 67 64 
45	6	11		98 97 87 86 83 79 76 72 70 68 63 
46	6	11		101 99 86 84 83 82 77 76 71 68 66 
47	6	10		87 85 84 82 79 78 77 75 71 62 
48	6	9		97 87 86 84 78 74 73 70 66 
49	6	10		101 95 86 83 82 79 77 71 68 64 
50	6	9		99 96 87 86 84 82 76 67 65 
51	6	9		98 97 82 79 77 76 73 68 67 
52	6	6		101 97 87 76 73 63 
53	6	6		100 97 94 89 70 66 
54	6	10		98 97 95 94 93 90 85 84 82 79 
55	6	10		100 99 98 97 96 95 92 88 80 73 
56	6	8		98 95 93 87 84 83 73 71 
57	6	9		99 98 97 96 95 92 90 81 75 
58	6	8		98 96 95 93 92 88 73 71 
59	6	7		100 97 95 92 81 75 73 
60	6	7		98 95 94 85 83 81 74 
61	6	7		96 91 84 83 77 76 74 
62	6	7		98 96 95 93 88 81 73 
63	6	7		99 96 95 92 88 85 81 
64	6	5		96 93 88 81 74 
65	6	4		95 88 81 73 
66	6	5		95 92 90 88 79 
67	6	3		94 83 74 
68	6	6		96 94 91 90 89 88 
69	6	5		93 92 90 89 88 
70	6	4		99 93 92 82 
71	6	4		97 94 91 89 
72	6	4		94 93 91 90 
73	6	3		94 90 89 
74	6	3		92 90 89 
75	6	3		93 89 88 
76	6	2		93 90 
77	6	2		90 89 
78	6	2		96 88 
79	6	1		81 
80	6	1		81 
81	6	1		91 
82	6	1		88 
83	6	1		88 
84	6	1		92 
85	6	1		89 
86	6	1		91 
87	6	1		92 
88	6	1		102 
89	6	1		102 
90	6	1		102 
91	6	1		102 
92	6	1		102 
93	6	1		102 
94	6	1		102 
95	6	1		102 
96	6	1		102 
97	6	1		102 
98	6	1		102 
99	6	1		102 
100	6	1		102 
101	6	1		102 
102	1	0		
************************************************************************
REQUESTS/DURATIONS
jobnr.	mode	dur	R1	R2	N1	N2	
------------------------------------------------------------------------
1	1	0	0	0	0	0	
2	1	2	18	15	6	17	
	2	5	17	14	5	15	
	3	10	15	14	5	12	
	4	13	14	11	5	11	
	5	19	11	9	4	9	
	6	20	11	8	4	9	
3	1	1	15	14	13	12	
	2	2	12	11	11	12	
	3	5	11	11	10	9	
	4	9	9	6	10	8	
	5	13	7	6	9	8	
	6	20	6	1	7	5	
4	1	1	4	9	20	18	
	2	3	4	8	17	14	
	3	5	4	8	16	13	
	4	8	4	8	13	11	
	5	9	4	8	13	10	
	6	16	4	8	10	8	
5	1	1	14	14	10	12	
	2	3	13	12	9	11	
	3	4	13	10	8	11	
	4	5	13	9	7	10	
	5	8	13	6	5	10	
	6	14	13	5	3	10	
6	1	10	8	11	18	17	
	2	11	8	11	16	17	
	3	12	8	11	15	17	
	4	13	8	11	15	16	
	5	14	8	10	14	16	
	6	18	8	10	12	16	
7	1	2	15	19	11	10	
	2	3	13	19	10	8	
	3	9	10	18	8	7	
	4	12	10	17	7	7	
	5	16	8	17	6	5	
	6	19	6	16	4	3	
8	1	3	7	2	16	20	
	2	4	7	1	12	19	
	3	5	6	1	11	18	
	4	15	5	1	10	18	
	5	17	4	1	7	16	
	6	20	3	1	5	16	
9	1	2	3	9	19	7	
	2	7	3	8	15	6	
	3	8	3	7	14	4	
	4	9	3	6	11	3	
	5	11	2	5	10	3	
	6	18	2	5	7	1	
10	1	3	10	17	13	9	
	2	15	10	17	13	8	
	3	16	9	15	13	7	
	4	17	7	13	13	5	
	5	19	5	12	13	5	
	6	20	4	11	13	4	
11	1	2	11	10	16	17	
	2	3	10	9	14	16	
	3	8	10	9	12	16	
	4	17	9	9	11	14	
	5	18	6	8	9	14	
	6	19	5	8	8	13	
12	1	3	16	17	9	19	
	2	9	13	15	8	18	
	3	12	10	10	8	17	
	4	13	9	9	7	16	
	5	17	6	5	6	14	
	6	19	5	3	5	13	
13	1	3	18	18	17	17	
	2	6	16	16	17	15	
	3	9	15	16	17	12	
	4	10	14	16	17	8	
	5	15	12	15	17	7	
	6	19	11	14	17	5	
14	1	8	12	19	8	11	
	2	14	9	18	7	10	
	3	16	9	16	7	10	
	4	17	6	14	6	9	
	5	18	5	14	6	9	
	6	20	3	12	5	9	
15	1	2	13	14	8	11	
	2	12	13	12	8	10	
	3	13	13	12	7	10	
	4	14	13	11	7	10	
	5	15	13	9	7	10	
	6	16	13	9	6	10	
16	1	1	4	6	5	7	
	2	2	4	4	4	6	
	3	4	4	3	3	5	
	4	6	4	2	2	4	
	5	8	4	2	2	2	
	6	12	4	1	1	1	
17	1	4	19	19	11	9	
	2	7	18	18	9	7	
	3	9	18	18	8	7	
	4	10	17	17	8	6	
	5	14	15	17	6	5	
	6	18	15	17	6	3	
18	1	2	20	10	4	12	
	2	4	14	9	4	11	
	3	6	13	6	4	10	
	4	7	9	6	3	10	
	5	17	8	2	3	9	
	6	19	4	1	2	9	
19	1	7	7	14	16	18	
	2	10	6	13	15	15	
	3	12	6	11	15	14	
	4	14	3	11	15	12	
	5	17	3	9	14	11	
	6	18	1	8	14	11	
20	1	4	9	19	16	16	
	2	5	9	14	12	14	
	3	6	7	11	12	13	
	4	9	6	8	9	13	
	5	11	5	6	7	11	
	6	12	4	3	4	11	
21	1	2	16	11	16	11	
	2	13	12	9	15	10	
	3	14	11	7	15	10	
	4	16	7	6	14	10	
	5	17	6	5	13	9	
	6	19	3	3	13	9	
22	1	6	10	19	18	7	
	2	7	9	16	17	5	
	3	13	8	15	17	4	
	4	15	8	13	17	4	
	5	19	7	10	17	2	
	6	20	5	9	17	2	
23	1	2	19	11	16	19	
	2	8	14	10	16	18	
	3	11	13	10	15	17	
	4	13	12	9	14	16	
	5	14	8	9	13	16	
	6	16	6	8	11	15	
24	1	1	15	11	19	15	
	2	4	14	11	16	14	
	3	6	13	7	11	13	
	4	12	11	6	8	11	
	5	13	10	3	7	10	
	6	14	9	3	5	8	
25	1	1	18	18	16	11	
	2	8	17	14	15	9	
	3	9	16	12	14	7	
	4	10	14	9	13	5	
	5	19	13	6	12	5	
	6	20	12	4	11	3	
26	1	2	5	18	14	14	
	2	8	5	17	13	13	
	3	9	5	15	13	12	
	4	10	5	14	12	9	
	5	19	5	14	12	8	
	6	20	5	13	11	7	
27	1	1	19	12	17	20	
	2	3	14	10	16	19	
	3	4	12	9	15	19	
	4	12	11	7	15	19	
	5	17	5	6	13	19	
	6	20	4	6	13	19	
28	1	2	12	17	5	18	
	2	8	12	16	4	18	
	3	9	12	16	4	17	
	4	11	12	15	3	18	
	5	16	12	15	3	17	
	6	19	12	15	3	16	
29	1	2	6	15	18	15	
	2	3	5	14	17	15	
	3	7	3	14	14	12	
	4	18	3	14	12	10	
	5	19	2	12	10	8	
	6	20	1	12	9	6	
30	1	6	5	13	3	18	
	2	8	4	11	3	17	
	3	9	4	9	3	17	
	4	11	4	8	2	16	
	5	13	4	7	2	16	
	6	15	4	5	1	16	
31	1	2	3	18	12	6	
	2	12	3	16	11	5	
	3	13	3	14	9	4	
	4	15	2	12	8	4	
	5	16	2	8	5	3	
	6	19	1	8	4	2	
32	1	1	16	11	9	13	
	2	5	14	10	6	10	
	3	9	12	8	6	9	
	4	11	11	6	5	6	
	5	14	9	5	3	5	
	6	18	6	4	2	3	
33	1	1	7	5	15	18	
	2	3	7	4	14	18	
	3	12	7	4	13	18	
	4	14	7	4	11	17	
	5	19	7	2	10	17	
	6	20	7	2	9	16	
34	1	7	7	17	10	14	
	2	9	6	16	10	13	
	3	10	6	15	10	11	
	4	14	6	14	10	10	
	5	15	6	12	10	8	
	6	20	6	12	10	7	
35	1	1	17	18	15	15	
	2	2	16	18	15	15	
	3	4	14	16	15	15	
	4	15	12	14	14	15	
	5	16	9	13	14	15	
	6	19	6	12	13	15	
36	1	5	18	18	11	10	
	2	6	17	16	9	8	
	3	9	17	10	8	8	
	4	11	16	9	7	6	
	5	19	15	5	6	6	
	6	20	15	3	6	5	
37	1	2	11	5	19	3	
	2	3	8	5	19	2	
	3	7	8	5	19	1	
	4	11	6	5	19	2	
	5	12	4	5	19	2	
	6	16	2	5	19	2	
38	1	7	19	16	18	16	
	2	8	19	16	18	15	
	3	9	19	15	16	15	
	4	11	18	12	15	15	
	5	12	18	12	15	14	
	6	13	17	11	14	15	
39	1	2	18	11	15	16	
	2	6	18	10	15	13	
	3	11	17	8	12	13	
	4	12	17	7	12	9	
	5	13	16	5	8	7	
	6	16	16	5	7	3	
40	1	4	12	20	1	16	
	2	5	11	14	1	12	
	3	12	10	14	1	12	
	4	15	8	9	1	7	
	5	19	7	6	1	7	
	6	20	6	2	1	4	
41	1	3	15	15	15	18	
	2	4	15	15	12	17	
	3	9	14	15	9	11	
	4	10	12	15	8	10	
	5	18	10	15	3	6	
	6	20	10	15	1	4	
42	1	3	17	15	10	8	
	2	4	15	14	10	7	
	3	5	14	11	8	6	
	4	13	13	10	8	6	
	5	14	12	8	6	5	
	6	15	12	7	6	5	
43	1	2	10	6	13	18	
	2	6	8	6	11	16	
	3	9	7	6	11	14	
	4	12	5	6	10	13	
	5	16	4	6	7	10	
	6	19	1	6	5	10	
44	1	3	6	12	20	14	
	2	7	6	11	18	11	
	3	13	6	11	18	10	
	4	14	5	10	16	9	
	5	16	4	10	16	8	
	6	18	4	9	15	6	
45	1	6	15	7	18	12	
	2	13	13	6	16	10	
	3	15	11	6	16	7	
	4	18	10	5	15	7	
	5	19	9	5	15	5	
	6	20	6	4	14	3	
46	1	5	15	13	12	15	
	2	8	14	12	11	13	
	3	10	10	10	10	10	
	4	12	8	9	9	8	
	5	14	8	8	9	5	
	6	19	6	7	8	5	
47	1	3	2	11	7	19	
	2	4	1	11	7	18	
	3	5	1	9	6	18	
	4	7	1	9	5	18	
	5	12	1	7	5	18	
	6	17	1	6	4	18	
48	1	6	17	17	18	11	
	2	8	16	15	18	10	
	3	10	10	14	17	9	
	4	11	9	14	16	7	
	5	14	6	12	14	4	
	6	17	3	11	14	4	
49	1	4	8	18	16	11	
	2	5	5	16	12	10	
	3	7	5	16	12	8	
	4	8	4	14	7	6	
	5	9	2	11	5	3	
	6	20	1	10	2	3	
50	1	1	17	15	16	5	
	2	2	14	12	15	4	
	3	3	14	11	13	3	
	4	5	12	10	13	3	
	5	7	9	6	12	2	
	6	20	8	5	11	2	
51	1	3	18	11	19	5	
	2	4	17	10	16	5	
	3	6	16	9	16	4	
	4	8	16	9	13	4	
	5	12	15	9	13	2	
	6	13	15	8	11	2	
52	1	3	16	13	3	19	
	2	4	15	12	3	18	
	3	10	13	12	3	19	
	4	11	13	12	3	18	
	5	13	11	12	3	17	
	6	16	11	12	3	16	
53	1	1	19	15	18	18	
	2	3	18	15	18	16	
	3	6	17	14	18	16	
	4	8	17	12	18	16	
	5	10	17	12	18	15	
	6	12	16	10	18	14	
54	1	1	19	20	7	9	
	2	3	18	17	6	9	
	3	5	18	14	4	9	
	4	6	17	9	3	9	
	5	7	17	7	2	9	
	6	15	17	4	2	9	
55	1	2	16	16	19	15	
	2	5	15	15	17	12	
	3	6	15	13	16	12	
	4	7	15	10	15	8	
	5	13	15	8	15	8	
	6	17	15	8	14	6	
56	1	3	10	14	19	16	
	2	5	10	14	17	15	
	3	7	9	13	17	13	
	4	11	9	13	15	13	
	5	12	9	12	14	11	
	6	20	8	11	14	8	
57	1	7	6	6	7	6	
	2	9	5	6	6	4	
	3	10	4	6	5	4	
	4	11	4	6	5	3	
	5	12	3	6	3	3	
	6	17	1	6	3	2	
58	1	2	19	7	19	19	
	2	6	19	6	16	19	
	3	7	19	4	15	18	
	4	8	18	3	14	18	
	5	16	18	2	13	17	
	6	18	18	1	12	17	
59	1	4	20	14	18	16	
	2	5	18	14	17	14	
	3	6	18	14	16	12	
	4	12	17	14	13	12	
	5	15	15	14	13	10	
	6	17	14	14	11	9	
60	1	5	4	12	19	17	
	2	6	4	12	16	14	
	3	10	4	11	14	12	
	4	11	3	9	10	11	
	5	12	2	9	6	9	
	6	13	2	8	5	7	
61	1	4	16	7	16	15	
	2	5	14	6	15	14	
	3	11	12	4	15	13	
	4	13	11	4	14	11	
	5	14	9	2	14	11	
	6	18	6	2	14	10	
62	1	1	10	13	18	16	
	2	2	10	12	15	14	
	3	13	10	12	14	12	
	4	17	9	12	13	11	
	5	18	8	12	12	9	
	6	19	8	12	12	8	
63	1	2	18	18	13	18	
	2	5	17	17	10	15	
	3	7	17	17	10	12	
	4	8	17	17	7	9	
	5	11	16	17	4	4	
	6	18	16	17	3	3	
64	1	3	15	8	14	16	
	2	4	11	8	13	15	
	3	7	9	6	13	11	
	4	14	7	4	12	10	
	5	15	6	3	12	7	
	6	17	3	3	12	7	
65	1	5	3	18	19	7	
	2	7	3	13	15	7	
	3	8	3	11	12	7	
	4	11	3	9	10	7	
	5	12	2	7	10	7	
	6	13	2	6	8	7	
66	1	3	14	7	13	2	
	2	5	10	7	12	2	
	3	12	9	6	10	2	
	4	13	5	6	10	2	
	5	14	4	5	8	2	
	6	17	3	5	8	2	
67	1	2	6	16	19	15	
	2	5	4	16	19	15	
	3	6	3	13	18	14	
	4	7	3	11	16	13	
	5	8	2	8	16	10	
	6	13	1	6	15	10	
68	1	7	16	2	20	14	
	2	11	12	2	19	10	
	3	16	9	2	18	8	
	4	17	9	2	18	7	
	5	18	5	2	16	6	
	6	20	4	2	16	3	
69	1	6	8	18	17	7	
	2	11	8	18	15	5	
	3	14	8	17	12	4	
	4	16	8	15	11	4	
	5	17	8	14	6	2	
	6	20	8	14	3	2	
70	1	2	16	10	4	6	
	2	3	15	9	4	6	
	3	5	14	9	3	5	
	4	8	14	7	3	5	
	5	16	13	7	2	5	
	6	19	12	6	2	4	
71	1	4	8	18	20	18	
	2	7	7	16	14	15	
	3	8	6	15	12	13	
	4	12	6	15	9	11	
	5	13	3	11	8	10	
	6	15	2	11	4	7	
72	1	1	14	15	4	19	
	2	2	13	10	4	18	
	3	6	12	10	4	18	
	4	8	11	8	3	17	
	5	11	9	5	3	17	
	6	13	8	2	3	17	
73	1	6	12	16	13	16	
	2	13	11	13	10	16	
	3	14	11	11	9	15	
	4	15	9	11	7	13	
	5	16	6	8	6	13	
	6	17	6	6	5	12	
74	1	3	15	8	11	11	
	2	4	13	8	11	9	
	3	8	12	8	10	9	
	4	12	11	8	10	7	
	5	13	9	8	10	6	
	6	19	6	8	9	5	
75	1	9	9	18	10	15	
	2	10	8	17	8	14	
	3	11	8	15	5	14	
	4	14	8	14	4	12	
	5	15	7	13	4	11	
	6	17	7	12	2	11	
76	1	2	2	19	4	20	
	2	9	2	14	4	17	
	3	10	2	12	4	11	
	4	11	2	11	3	10	
	5	12	2	7	2	7	
	6	17	2	5	2	4	
77	1	3	8	12	15	10	
	2	5	7	10	15	9	
	3	9	6	10	13	8	
	4	13	5	8	10	7	
	5	16	4	7	8	7	
	6	19	3	7	5	6	
78	1	2	9	9	15	20	
	2	7	6	9	15	19	
	3	16	6	7	14	18	
	4	17	4	5	14	17	
	5	18	4	2	14	15	
	6	20	2	1	13	14	
79	1	2	18	16	14	19	
	2	4	18	14	13	19	
	3	5	15	13	13	19	
	4	14	15	10	12	19	
	5	18	13	10	11	18	
	6	20	10	8	11	18	
80	1	2	10	16	19	14	
	2	11	9	13	16	14	
	3	12	9	12	16	14	
	4	13	8	8	13	14	
	5	19	8	6	13	14	
	6	20	8	5	11	14	
81	1	1	14	13	6	20	
	2	5	13	12	4	16	
	3	6	13	10	4	13	
	4	10	11	9	4	12	
	5	18	11	8	3	9	
	6	19	9	6	2	8	
82	1	4	17	12	17	18	
	2	7	17	12	17	16	
	3	8	16	10	16	13	
	4	9	15	9	16	11	
	5	12	12	9	16	9	
	6	16	12	7	15	6	
83	1	4	13	5	10	18	
	2	6	11	4	10	17	
	3	7	11	4	10	16	
	4	11	9	4	9	14	
	5	12	8	4	9	14	
	6	18	7	4	9	13	
84	1	4	19	5	19	18	
	2	5	18	5	18	17	
	3	10	17	5	17	17	
	4	11	17	5	16	17	
	5	13	15	5	16	17	
	6	20	15	5	15	17	
85	1	1	15	12	11	7	
	2	6	15	11	8	7	
	3	8	13	10	7	7	
	4	9	13	10	4	7	
	5	12	12	10	3	7	
	6	19	10	9	2	7	
86	1	5	7	18	6	18	
	2	8	6	17	6	16	
	3	12	6	16	5	16	
	4	14	6	15	5	14	
	5	15	5	14	5	14	
	6	16	5	14	4	13	
87	1	1	7	18	18	13	
	2	3	6	17	18	11	
	3	13	6	16	18	10	
	4	14	6	16	18	9	
	5	17	5	16	17	7	
	6	18	5	15	17	4	
88	1	4	15	14	7	17	
	2	12	11	14	5	16	
	3	14	11	10	5	14	
	4	15	7	9	5	14	
	5	16	5	8	3	13	
	6	20	5	6	3	12	
89	1	3	14	14	16	13	
	2	7	14	13	12	10	
	3	9	13	12	11	7	
	4	11	13	12	7	5	
	5	15	12	10	3	4	
	6	16	11	10	1	2	
90	1	2	6	18	18	14	
	2	3	5	17	15	14	
	3	6	5	17	13	14	
	4	8	4	14	12	14	
	5	9	4	13	8	14	
	6	14	3	12	6	14	
91	1	2	13	20	13	7	
	2	3	13	17	11	7	
	3	4	12	17	7	6	
	4	11	10	16	5	4	
	5	14	9	13	3	3	
	6	15	9	13	3	2	
92	1	5	8	19	15	13	
	2	6	7	19	13	11	
	3	7	7	17	11	11	
	4	11	6	16	8	10	
	5	12	4	16	7	9	
	6	16	4	15	4	7	
93	1	2	12	12	15	4	
	2	6	11	9	15	4	
	3	7	11	8	14	4	
	4	8	9	7	13	4	
	5	13	8	5	13	4	
	6	16	7	3	12	4	
94	1	4	15	16	19	15	
	2	8	12	13	16	13	
	3	9	10	10	16	12	
	4	10	9	8	12	12	
	5	12	7	5	10	10	
	6	19	6	3	10	7	
95	1	3	9	4	20	16	
	2	4	9	3	15	13	
	3	5	9	3	14	10	
	4	6	8	3	12	8	
	5	7	8	2	9	6	
	6	14	7	2	7	4	
96	1	1	19	20	11	3	
	2	2	17	19	11	3	
	3	4	15	19	11	3	
	4	6	15	19	11	2	
	5	13	13	19	10	3	
	6	18	11	19	10	3	
97	1	2	16	7	15	13	
	2	3	13	6	15	10	
	3	4	12	6	15	9	
	4	5	11	6	15	8	
	5	7	11	5	14	8	
	6	8	9	5	14	6	
98	1	4	5	18	17	2	
	2	5	4	15	17	1	
	3	7	4	11	14	1	
	4	9	3	10	12	1	
	5	10	3	6	11	1	
	6	20	2	2	9	1	
99	1	3	14	16	14	19	
	2	5	10	13	11	15	
	3	6	9	11	9	13	
	4	8	8	10	7	9	
	5	10	7	8	6	5	
	6	12	5	7	4	4	
100	1	5	18	16	17	13	
	2	8	14	13	14	13	
	3	12	13	11	13	13	
	4	13	13	8	13	13	
	5	14	9	6	11	12	
	6	19	9	5	10	12	
101	1	6	13	14	14	11	
	2	7	12	14	14	11	
	3	10	11	12	13	8	
	4	11	11	12	13	7	
	5	12	9	11	12	6	
	6	13	9	10	12	3	
102	1	0	0	0	0	0	
************************************************************************

 RESOURCE AVAILABILITIES 
	R 1	R 2	N 1	N 2
	67	72	1232	1215

************************************************************************
